NAME          DCAP_2_4_3_500_SS486
ROWS
 N  OBJ
 L  CON1
 L  CON2
 L  CON3
 L  CON4
 L  CON5
 L  CON6
 L  CON7
 L  CON8
 L  CON9
 L  CON10
 L  CON11
 L  CON12
 E  CON13
 E  CON14
 E  CON15
 E  CON16
 E  CON17
 E  CON18
 E  CON19
 E  CON20
 E  CON21
 E  CON22
 E  CON23
 E  CON24
COLUMNS
    x[1,1]    OBJ       6.180167      CON1      1.000000    
    x[1,1]    CON7      -1.000000     CON8      -1.000000   
    x[1,1]    CON9      -1.000000   
    x[1,2]    OBJ       6.563535      CON2      1.000000    
    x[1,2]    CON8      -1.000000     CON9      -1.000000   
    x[1,3]    OBJ       7.443064      CON3      1.000000    
    x[1,3]    CON9      -1.000000   
    x[2,1]    OBJ       6.732585      CON4      1.000000    
    x[2,1]    CON10     -1.000000     CON11     -1.000000   
    x[2,1]    CON12     -1.000000   
    x[2,2]    OBJ       5.039546      CON5      1.000000    
    x[2,2]    CON11     -1.000000     CON12     -1.000000   
    x[2,3]    OBJ       6.054841      CON6      1.000000    
    x[2,3]    CON12     -1.000000   
    MARKER    'MARKER'                'INTORG'
    u[1,1]    OBJ       48.076654     CON1      -1.000000   
    u[1,2]    OBJ       20.066487     CON2      -1.000000   
    u[1,3]    OBJ       32.230043     CON3      -1.000000   
    u[2,1]    OBJ       49.996186     CON4      -1.000000   
    u[2,2]    OBJ       49.466655     CON5      -1.000000   
    u[2,3]    OBJ       27.484319     CON6      -1.000000   
    y[1,1,1]  OBJ       9.440337      CON7      1.213074    
    y[1,1,1]  CON13     1.000000    
    y[1,1,2]  OBJ       6.897080      CON8      0.647340    
    y[1,1,2]  CON14     1.000000    
    y[1,1,3]  OBJ       9.608519      CON9      0.504814    
    y[1,1,3]  CON15     1.000000    
    y[1,2,1]  OBJ       5.050268      CON7      1.412576    
    y[1,2,1]  CON16     1.000000    
    y[1,2,2]  OBJ       8.389129      CON8      0.835465    
    y[1,2,2]  CON17     1.000000    
    y[1,2,3]  OBJ       8.682100      CON9      1.227818    
    y[1,2,3]  CON18     1.000000    
    y[1,3,1]  OBJ       6.167988      CON7      1.241628    
    y[1,3,1]  CON19     1.000000    
    y[1,3,2]  OBJ       7.485910      CON8      0.978309    
    y[1,3,2]  CON20     1.000000    
    y[1,3,3]  OBJ       8.319314      CON9      1.209991    
    y[1,3,3]  CON21     1.000000    
    y[1,4,1]  OBJ       5.871416      CON7      0.897522    
    y[1,4,1]  CON22     1.000000    
    y[1,4,2]  OBJ       6.588374      CON8      0.944776    
    y[1,4,2]  CON23     1.000000    
    y[1,4,3]  OBJ       5.383220      CON9      0.599764    
    y[1,4,3]  CON24     1.000000    
    y[2,1,1]  OBJ       7.675675      CON10     1.213074    
    y[2,1,1]  CON13     1.000000    
    y[2,1,2]  OBJ       5.338378      CON11     0.647340    
    y[2,1,2]  CON14     1.000000    
    y[2,1,3]  OBJ       9.009071      CON12     0.504814    
    y[2,1,3]  CON15     1.000000    
    y[2,2,1]  OBJ       7.400860      CON10     1.412576    
    y[2,2,1]  CON16     1.000000    
    y[2,2,2]  OBJ       5.256588      CON11     0.835465    
    y[2,2,2]  CON17     1.000000    
    y[2,2,3]  OBJ       5.732861      CON12     1.227818    
    y[2,2,3]  CON18     1.000000    
    y[2,3,1]  OBJ       7.962169      CON10     1.241628    
    y[2,3,1]  CON19     1.000000    
    y[2,3,2]  OBJ       9.089883      CON11     0.978309    
    y[2,3,2]  CON20     1.000000    
    y[2,3,3]  OBJ       6.465467      CON12     1.209991    
    y[2,3,3]  CON21     1.000000    
    y[2,4,1]  OBJ       9.742334      CON10     0.897522    
    y[2,4,1]  CON22     1.000000    
    y[2,4,2]  OBJ       5.148487      CON11     0.944776    
    y[2,4,2]  CON23     1.000000    
    y[2,4,3]  OBJ       7.272377      CON12     0.599764    
    y[2,4,3]  CON24     1.000000    
    z[1,1]    OBJ       858.677123    CON13     1.000000    
    z[1,2]    OBJ       630.226810    CON14     1.000000    
    z[1,3]    OBJ       935.581733    CON15     1.000000    
    z[2,1]    OBJ       597.904417    CON16     1.000000    
    z[2,2]    OBJ       589.551170    CON17     1.000000    
    z[2,3]    OBJ       704.359652    CON18     1.000000    
    z[3,1]    OBJ       565.116670    CON19     1.000000    
    z[3,2]    OBJ       805.194450    CON20     1.000000    
    z[3,3]    OBJ       911.143779    CON21     1.000000    
    z[4,1]    OBJ       611.554161    CON22     1.000000    
    z[4,2]    OBJ       584.993790    CON23     1.000000    
    z[4,3]    OBJ       953.400796    CON24     1.000000    
    MARKER    'MARKER'                 'INTEND'
RHS
    RHS       CON1      -0.000000     CON2      -0.000000   
    RHS       CON3      -0.000000     CON4      -0.000000   
    RHS       CON5      -0.000000     CON6      -0.000000   
    RHS       CON7      -0.000000     CON8      -0.000000   
    RHS       CON9      -0.000000     CON10     -0.000000   
    RHS       CON11     -0.000000     CON12     -0.000000   
    RHS       CON13     1.000000      CON14     1.000000    
    RHS       CON15     1.000000      CON16     1.000000    
    RHS       CON17     1.000000      CON18     1.000000    
    RHS       CON19     1.000000      CON20     1.000000    
    RHS       CON21     1.000000      CON22     1.000000    
    RHS       CON23     1.000000      CON24     1.000000    
BOUNDS
 BV BOUND     u[1,1]  
 BV BOUND     u[1,2]  
 BV BOUND     u[1,3]  
 BV BOUND     u[2,1]  
 BV BOUND     u[2,2]  
 BV BOUND     u[2,3]  
 BV BOUND     y[1,1,1]
 BV BOUND     y[1,1,2]
 BV BOUND     y[1,1,3]
 BV BOUND     y[1,2,1]
 BV BOUND     y[1,2,2]
 BV BOUND     y[1,2,3]
 BV BOUND     y[1,3,1]
 BV BOUND     y[1,3,2]
 BV BOUND     y[1,3,3]
 BV BOUND     y[1,4,1]
 BV BOUND     y[1,4,2]
 BV BOUND     y[1,4,3]
 BV BOUND     y[2,1,1]
 BV BOUND     y[2,1,2]
 BV BOUND     y[2,1,3]
 BV BOUND     y[2,2,1]
 BV BOUND     y[2,2,2]
 BV BOUND     y[2,2,3]
 BV BOUND     y[2,3,1]
 BV BOUND     y[2,3,2]
 BV BOUND     y[2,3,3]
 BV BOUND     y[2,4,1]
 BV BOUND     y[2,4,2]
 BV BOUND     y[2,4,3]
 BV BOUND     z[1,1]  
 BV BOUND     z[1,2]  
 BV BOUND     z[1,3]  
 BV BOUND     z[2,1]  
 BV BOUND     z[2,2]  
 BV BOUND     z[2,3]  
 BV BOUND     z[3,1]  
 BV BOUND     z[3,2]  
 BV BOUND     z[3,3]  
 BV BOUND     z[4,1]  
 BV BOUND     z[4,2]  
 BV BOUND     z[4,3]  
ENDATA
